[VALIDATOR STDOUT]
Checking plan: /home/jfan5/Safety-gen/runs/benchmark/optic/ferry_20260129_162355/ferry/optic_results/ferry-l21-c11-s21001.plan
Plan executed successfully - checking goal
Plan valid
Final value: 46 

Successful plans:
Value: 46
 /home/jfan5/Safety-gen/runs/benchmark/optic/ferry_20260129_162355/ferry/optic_results/ferry-l21-c11-s21001.plan 46
